nb_dom_cuts = 120
root_relax = 70.69
QCR_time = 9.8924
nb_dom_cuts = 120
opt = true
obj_val = 70.0
solved_time = 0.094
explored_nodes = 778
0
CPXPARAM_Preprocessing_NumPass                   0
CPXPARAM_Output_CloneLog                         -1
CPXPARAM_MIP_Cuts_Cliques                        -1
CPXPARAM_Preprocessing_CoeffReduce               0
CPXPARAM_MIP_Cuts_Covers                         -1
CPXPARAM_Preprocessing_BoundStrength             0
CPXPARAM_Preprocessing_Relax                     0
CPXPARAM_MIP_Cuts_FlowCovers                     -1
CPXPARAM_MIP_Cuts_Implied                        -1
CPXPARAM_MIP_Strategy_Probe                      -1
CPXPARAM_MIP_Cuts_GUBCovers                      -1
CPXPARAM_MIP_Cuts_Gomory                         -1
CPXPARAM_MIP_Cuts_PathCut                        -1
CPXPARAM_MIP_Cuts_MIRCut                         -1
CPXPARAM_MIP_Cuts_Disjunctive                    -1
CPXPARAM_Preprocessing_Symmetry                  0
CPXPARAM_Preprocessing_RepeatPresolve            0
CPXPARAM_MIP_Strategy_FPHeur                     -1
CPXPARAM_MIP_Cuts_ZeroHalfCut                    -1
CPXPARAM_MIP_Cuts_LiftProj                       -1
CPXPARAM_Preprocessing_QPMakePSD                 0
CPXPARAM_Preprocessing_QToLin                    0
CPXPARAM_MIP_Strategy_HeuristicFreq              -1
CPXPARAM_MIP_Limits_CutPasses                    -1
CPXPARAM_MIP_Strategy_RINSHeur                   -1
CPXPARAM_TimeLimit                               1800
Tried aggregator 0 times.
MIQP Presolve eliminated 0 rows and 8 columns.
Reduced MIQP has 0 rows, 52 columns, and 0 nonzeros.
Reduced MIQP has 52 binaries, 0 generals, 0 SOSs, and 0 indicators.
Reduced MIQP objective Q matrix has 202 nonzeros.
Presolve time = 0.00 sec. (0.05 ticks)
MIP emphasis: balance optimality and feasibility.
MIP search method: dynamic search.
Parallel mode: deterministic, using up to 32 threads.
Root relaxation solution time = 0.00 sec. (0.51 ticks)

        Nodes                                         Cuts/
   Node  Left     Objective  IInf  Best Integer    Best Bound    ItCnt     Gap

      0     0      -70.6876    52                    -70.6876        7         
      0     2      -70.6876    52                    -70.6876        7         
Elapsed time = 0.06 sec. (0.66 ticks, tree = 0.02 MB, solutions = 0)
*   388    71      integral     0      -70.0000      -70.6328      487    0.90%

Root node processing (before b&c):
  Real time             =    0.00 sec. (0.60 ticks)
Parallel b&c, 32 threads:
  Real time             =    0.08 sec. (1.28 ticks)
  Sync time (average)   =    0.02 sec.
  Wait time (average)   =    0.00 sec.
                          ------------
Total (root+branch&cut) =    0.09 sec. (1.88 ticks)
